000 000 001 001 000 000 000 000 000 001 001 001 001 001 000 001 000 000 000 000 000 000 000 000 000 000 000 000 000 -99 -99
000 000 001 002 000 000 000 000 000 000 000 001 001 001 000 000 000 000 000 000 000 000 000 000 000 000 000 000 000 -99 -99
000 000 001 001 001 001 001 000 000 000 000 000 000 000 000 000 000 000 000 000 000 000 000 000 000 000 000 000 -99 -99 -99
000 000 000 000 000 001 001 001 000 000 000 000 000 000 000 000 000 000 000 000 000 000 000 000 000 000 000 000 -99 -99 -99
000 000 000 000 000 000 001 001 000 000 000 000 000 000 000 000 000 000 000 000 000 000 000 000 000 -99 -99 -99 -99 -99 -99
000 000 000 000 000 000 001 001 001 001 000 000 000 000 000 000 000 000 000 000 000 000 000 -99 -99 -99 -99 -99 -99 -99 001
000 000 000 000 000 000 001 001 001 001 000 000 000 000 000 000 000 000 000 000 000 000 000 000 -99 -99 -99 -99 -99 004 -99
000 000 000 001 000 000 000 001 001 001 000 000 000 000 000 000 000 000 000 000 000 000 000 000 -99 -99 -99 -99 -99 004 005
000 000 001 001 001 001 000 001 001 000 000 000 000 000 000 000 000 000 000 000 000 -99 -99 -99 000 -99 -99 -99 002 003 005
000 001 001 001 001 001 000 001 001 001 001 001 000 000 000 000 000 000 000 000 000 000 -99 -99 000 000 000 000 000 003 005
000 001 001 003 002 002 001 001 001 001 001 001 000 001 001 000 000 000 000 000 000 000 -99 000 000 -99 000 000 000 002 005
000 001 000 002 002 002 001 001 001 001 001 001 001 001 001 001 000 000 000 000 000 000 -99 000 000 -99 000 000 000 001 004
000 000 000 000 001 001 001 001 001 001 001 001 001 001 001 001 000 000 000 000 000 000 -99 000 000 000 000 000 001 001 003
000 000 000 000 000 000 000 001 001 001 001 001 001 001 003 003 001 000 000 000 000 000 -99 000 000 000 000 000 001 001 003
000 000 000 000 000 000 000 001 000 001 001 001 001 001 002 002 001 000 000 000 000 000 -99 000 000 000 000 000 000 000 003
000 000 000 000 000 000 000 000 000 001 001 001 001 001 001 001 000 000 000 000 000 000 -99 000 000 000 000 001 000 000 003
000 000 000 000 000 000 000 000 000 001 000 000 001 000 001 001 000 000 000 000 000 000 000 000 000 000 000 001 001 000 001
000 000 000 000 000 000 000 000 000 000 000 000 001 001 001 001 000 000 000 000 000 000 000 000 000 000 000 000 000 000 000
000 000 000 000 -99 000 000 000 000 000 000 000 001 001 001 001 001 000 000 000 000 001 000 000 000 000 000 -99 -99 000 000
000 000 000 000 000 -99 -99 000 000 000 000 000 000 001 001 001 001 000 000 001 000 001 000 -99 -99 -99 -99 -99 -99 -99 000
000 000 000 000 000 -99 -99 000 000 000 000 000 000 001 001 001 001 001 000 000 000 001 000 -99 -99 -99 -99 -99 -99 -99 -99
000 000 000 -99 -99 -99 -99 -99 -99 000 000 000 000 001 000 000 001 001 000 000 000 000 000 -99 -99 -99 -99 -99 -99 -99 -99
000 000 000 000 -99 000 -99 -99 -99 000 000 000 000 000 000 000 001 001 000 000 000 000 000 -99 -99 -99 -99 -99 -99 -99 -99
000 000 000 000 -99 000 -99 -99 000 000 000 000 000 000 000 000 000 000 000 000 001 000 000 -99 -99 -99 -99 -99 -99 -99 -99
000 000 000 000 000 000 000 -99 000 000 000 000 000 000 000 000 000 000 000 000 001 000 000 -99 -99 -99 -99 -99 -99 -99 -99
000 000 000 000 000 000 000 000 000 000 000 000 000 000 000 000 000 000 000 000 001 000 000 -99 -99 -99 -99 -99 -99 -99 000
000 000 000 000 000 000 000 000 000 000 000 000 000 000 000 -99 000 000 000 000 000 000 000 -99 -99 -99 -99 -99 -99 -99 000
000 000 000 000 000 000 -99 000 000 000 000 000 000 000 000 -99 -99 000 000 000 000 000 000 -99 -99 -99 -99 -99 -99 -99 000
000 000 000 000 000 000 -99 000 000 000 000 -99 000 000 000 -99 -99 000 000 000 000 000 -99 -99 -99 -99 -99 -99 -99 -99 000
000 000 000 000 000 000 -99 000 000 000 000 -99 000 000 000 000 -99 000 000 000 000 -99 -99 001 000 001 001 002 -99 -99 -99
000 000 000 000 000 -99 000 000 000 000 -99 -99 000 000 000 000 -99 -99 -99 000 000 -99 001 001 000 000 001 002 -99 -99 -99
000 000 000 000 000 -99 -99 -99 000 000 -99 -99 000 000 -99 -99 -99 -99 000 000 000 -99 001 000 000 000 000 001 002 -99 000
000 000 000 000 -99 -99 -99 -99 000 000 000 000 000 000 -99 -99 000 000 000 000 -99 000 000 000 001 000 000 001 000 000 000
000 000 000 000 000 -99 000 000 000 000 000 000 000 000 000 001 000 000 001 000 000 000 000 002 001 001 000 000 000 000 000
000 000 000 000 000 000 000 000 000 000 000 000 000 000 000 001 001 006 002 000 000 000 000 004 003 002 001 000 000 000 000
000 000 000 000 000 000 000 000 000 000 000 000 000 000 001 005 008 010 006 002 000 000 002 005 005 002 001 001 000 000 000
000 000 000 000 000 000 000 000 000 000 000 000 000 000 004 012 009 008 012 006 002 001 006 012 009 004 003 002 001 000 000
000 000 000 000 000 000 000 000 000 000 000 000 000 001 001 002 005 006 012 008 004 005 012 010 009 008 005 003 003 001 001
000 000 000 000 000 000 000 000 000 000 000 000 000 001 000 001 004 007 010 007 004 007 021 016 007 007 004 003 002 001 002
000 000 001 000 000 000 000 000 000 000 000 000 000 000 001 001 004 006 010 006 004 003 007 007 003 004 003 002 001 001 002
000 001 001 001 000 000 000 000 000 000 000 000 000 000 000 001 003 005 005 003 002 002 003 002 001 002 002 001 000 001 001
000 001 002 001 000 000 000 000 000 000 000 000 000 000 001 001 003 005 005 002 002 001 001 002 001 002 001 000 000 000 002
000 001 001 000 000 000 000 000 000 000 000 000 000 000 000 001 001 002 005 004 002 001 002 002 001 001 001 000 000 000 002
000 001 001 001 002 000 000 000 000 000 000 000 000 000 000 000 001 002 004 002 002 002 004 004 001 001 000 000 000 001 002
000 000 001 002 001 000 000 000 001 000 000 000 000 000 000 000 001 002 002 002 002 002 005 001 002 000 000 000 000 001 001
000 000 000 001 001 000 001 001 000 000 000 000 000 000 000 001 001 002 004 002 001 001 001 001 001 000 000 000 -99 -99 000
000 000 000 000 000 000 000 000 000 000 001 000 000 000 000 001 003 006 005 000 001 000 000 002 001 001 000 000 -99 -99 000
000 000 000 000 000 000 000 000 000 000 001 000 000 000 001 001 003 006 003 001 001 000 000 000 000 000 000 000 -99 -99 000
-99 -99 -99 -99 -99 000 000 000 000 000 001 000 000 000 000 000 002 006 002 001 000 000 000 000 000 000 000 000 -99 -99 -99
-99 -99 -99 000 -99 -99 000 000 000 000 000 000 000 000 000 000 001 002 002 000 000 000 000 000 000 000 000 000 000 -99 -99
-99 -99 000 000 000 000 000 000 000 000 000 000 000 000 000 000 002 001 000 000 000 000 000 -99 -99 000 000 -99 000 -99 -99
-99 -99 000 000 000 000 000 000 000 000 000 000 000 000 -99 001 003 001 000 000 000 -99 -99 -99 000 -99 -99 -99 -99 -99 -99
-99 -99 000 000 000 000 000 000 000 000 000 000 000 000 000 002 004 001 000 000 000 000 -99 -99 -99 -99 -99 -99 -99 -99 -99
-99 -99 -99 -99 000 000 000 000 000 000 000 -99 000 000 000 002 002 000 000 002 000 000 -99 -99 -99 -99 -99 -99 -99 -99 -99
-99 -99 -99 -99 -99 000 000 000 000 000 -99 -99 -99 000 000 001 001 000 001 001 000 000 -99 -99 -99 -99 -99 -99 -99 -99 -99
